c FILE /home/rafael/Documents/HappySet/MIHS/inputs/happygen/output/graph_scale_free_k3_p0.4_v100_20241127_083816.txt
c SOURCE This is a scale-free graph formed for the happy graph colouring problem.
c DESCRIPTION It was generated using the problem generator of Rhyd Lewis
c
c GRAPH STATS
c Seed                             = -1668076468
c Number of Nodes                  = 100
c Number of colours k              = 3
c Number of pre-assignments        = 40
c Number of links per new node     = 5
c Density                          = 0.0979798
c 
c The degrees of nodes 1 to 100, respectively, are as follows 
c [47, 32, 31, 30, 28, 27, 26, 19, 19, 18, 17, 15, 15, 14, 14, 12, 12, 12, 12, 11, 11, 11, 11, 11, 10, 10, 
c  10, 10, 9, 9, 9, 9, 9, 9, 9, 9, 8, 8, 8, 8, 8, 8, 8, 8, 8, 8, 8, 8, 8, 8, 8, 
c  7, 7, 7, 7, 7, 7, 7, 7, 7, 7, 7, 6, 6, 6, 6, 6, 6, 6, 6, 6, 6, 6, 6, 6, 6, 
c  6, 6, 5, 5, 5, 5, 5, 5, 5, 5, 5, 5, 5, 5, 5, 5, 5, 5, 5, 5, 5, 5, 5, 5] 
c  
p edge 100 485 3
e 1 2
e 1 3
e 1 4
e 1 5
e 1 6
e 1 7
e 1 8
e 1 9
e 1 10
e 1 12
e 1 13
e 1 14
e 1 15
e 1 16
e 1 19
e 1 21
e 1 22
e 1 23
e 1 24
e 1 25
e 1 26
e 1 27
e 1 28
e 1 31
e 1 37
e 1 40
e 1 42
e 1 43
e 1 44
e 1 47
e 1 50
e 1 53
e 1 56
e 1 57
e 1 61
e 1 65
e 1 68
e 1 69
e 1 74
e 1 81
e 1 83
e 1 84
e 1 87
e 1 88
e 1 90
e 1 91
e 1 93
e 2 3
e 2 4
e 2 5
e 2 6
e 2 7
e 2 8
e 2 9
e 2 11
e 2 12
e 2 15
e 2 17
e 2 18
e 2 20
e 2 21
e 2 22
e 2 25
e 2 29
e 2 32
e 2 37
e 2 41
e 2 45
e 2 49
e 2 56
e 2 64
e 2 67
e 2 70
e 2 71
e 2 78
e 2 79
e 2 82
e 2 88
e 3 4
e 3 5
e 3 6
e 3 7
e 3 11
e 3 13
e 3 14
e 3 16
e 3 17
e 3 20
e 3 21
e 3 25
e 3 26
e 3 31
e 3 35
e 3 36
e 3 38
e 3 39
e 3 42
e 3 48
e 3 53
e 3 59
e 3 60
e 3 62
e 3 64
e 3 65
e 3 66
e 3 86
e 3 96
e 4 5
e 4 6
e 4 7
e 4 11
e 4 12
e 4 14
e 4 16
e 4 20
e 4 22
e 4 24
e 4 25
e 4 26
e 4 30
e 4 31
e 4 34
e 4 47
e 4 49
e 4 54
e 4 68
e 4 72
e 4 74
e 4 78
e 4 80
e 4 94
e 4 96
e 4 99
e 4 100
e 5 6
e 5 7
e 5 9
e 5 15
e 5 16
e 5 17
e 5 21
e 5 25
e 5 28
e 5 29
e 5 30
e 5 32
e 5 33
e 5 43
e 5 46
e 5 58
e 5 67
e 5 68
e 5 73
e 5 77
e 5 87
e 5 88
e 5 95
e 5 100
e 6 8
e 6 9
e 6 10
e 6 11
e 6 14
e 6 22
e 6 26
e 6 29
e 6 30
e 6 31
e 6 32
e 6 37
e 6 39
e 6 40
e 6 43
e 6 48
e 6 64
e 6 67
e 6 69
e 6 71
e 6 74
e 6 87
e 7 8
e 7 10
e 7 12
e 7 13
e 7 14
e 7 16
e 7 18
e 7 31
e 7 32
e 7 38
e 7 54
e 7 57
e 7 59
e 7 62
e 7 65
e 7 67
e 7 68
e 7 72
e 7 76
e 7 79
e 7 97
e 8 16
e 8 17
e 8 19
e 8 21
e 8 28
e 8 29
e 8 33
e 8 34
e 8 36
e 8 40
e 8 41
e 8 68
e 8 85
e 8 92
e 8 98
e 9 13
e 9 18
e 9 22
e 9 27
e 9 40
e 9 42
e 9 43
e 9 46
e 9 48
e 9 58
e 9 61
e 9 69
e 9 75
e 9 91
e 9 95
e 10 11
e 10 12
e 10 40
e 10 44
e 10 52
e 10 63
e 10 70
e 10 74
e 10 75
e 10 77
e 10 80
e 10 85
e 10 87
e 10 96
e 10 100
e 11 16
e 11 19
e 11 27
e 11 28
e 11 29
e 11 30
e 11 47
e 11 52
e 11 64
e 11 79
e 11 90
e 11 94
e 12 15
e 12 33
e 12 35
e 12 42
e 12 43
e 12 47
e 12 51
e 12 57
e 12 67
e 12 71
e 13 14
e 13 23
e 13 35
e 13 41
e 13 51
e 13 54
e 13 55
e 13 60
e 13 63
e 13 84
e 13 86
e 14 20
e 14 22
e 14 34
e 14 35
e 14 39
e 14 69
e 14 84
e 14 99
e 15 17
e 15 21
e 15 23
e 15 29
e 15 32
e 15 37
e 15 50
e 15 52
e 15 75
e 15 90
e 16 18
e 16 20
e 16 38
e 16 60
e 16 63
e 17 27
e 17 33
e 17 60
e 17 63
e 17 66
e 17 75
e 17 95
e 18 30
e 18 34
e 18 38
e 18 41
e 18 54
e 18 70
e 18 76
e 18 100
e 19 27
e 19 33
e 19 37
e 19 47
e 19 50
e 19 53
e 19 66
e 19 79
e 19 83
e 20 24
e 20 45
e 20 66
e 20 77
e 20 81
e 20 93
e 21 55
e 21 71
e 21 76
e 21 78
e 21 81
e 22 27
e 22 41
e 22 54
e 22 78
e 22 88
e 23 26
e 23 29
e 23 39
e 23 44
e 23 46
e 23 66
e 23 78
e 23 80
e 24 26
e 24 39
e 24 65
e 24 69
e 24 71
e 24 73
e 24 85
e 24 92
e 25 30
e 25 37
e 25 39
e 25 42
e 25 90
e 26 29
e 26 38
e 26 57
e 26 73
e 27 52
e 27 80
e 27 88
e 27 96
e 28 48
e 28 54
e 28 55
e 28 59
e 28 83
e 28 91
e 29 45
e 30 34
e 30 77
e 30 89
e 31 44
e 31 53
e 31 63
e 31 86
e 32 55
e 32 79
e 32 81
e 32 83
e 33 36
e 33 53
e 33 65
e 33 80
e 34 76
e 34 85
e 34 89
e 34 93
e 35 36
e 35 42
e 35 45
e 35 56
e 35 89
e 36 43
e 36 50
e 36 51
e 36 87
e 36 91
e 37 49
e 37 82
e 38 76
e 38 94
e 38 99
e 39 59
e 39 61
e 40 50
e 40 58
e 40 64
e 41 46
e 41 52
e 41 84
e 42 83
e 42 92
e 43 92
e 43 99
e 44 52
e 44 62
e 44 89
e 44 97
e 45 51
e 45 53
e 45 56
e 45 100
e 46 53
e 46 58
e 46 70
e 46 73
e 47 48
e 47 55
e 47 86
e 48 58
e 48 61
e 48 94
e 49 54
e 49 61
e 49 66
e 49 82
e 49 99
e 50 56
e 50 95
e 50 98
e 51 55
e 51 62
e 51 74
e 51 97
e 52 93
e 55 72
e 56 62
e 56 77
e 57 69
e 57 73
e 57 89
e 58 82
e 58 96
e 59 68
e 59 92
e 59 93
e 60 74
e 60 82
e 60 84
e 61 91
e 61 98
e 62 94
e 62 98
e 63 70
e 64 81
e 65 97
e 67 86
e 70 72
e 71 72
e 72 75
e 73 90
e 75 98
e 76 97
e 77 85
e 78 95
n 11 2
n 16 2
n 17 1
n 19 2
n 28 2
n 29 2
n 31 3
n 32 2
n 34 1
n 35 2
n 39 2
n 40 3
n 42 2
n 46 3
n 47 2
n 49 1
n 51 1
n 52 2
n 62 1
n 65 2
n 67 1
n 68 2
n 69 2
n 72 1
n 73 3
n 75 1
n 76 1
n 78 1
n 79 2
n 80 3
n 81 2
n 82 1
n 83 2
n 85 1
n 87 3
n 92 2
n 95 1
n 96 2
n 99 1
n 100 2
